c Generated map
c Size: 30 * 30, weights in range: 1 to 10, walls: True, with ratio 0.1
c dim 3 of 3
c
p sp 900 1409
c graph contains 900 nodes and 1409 arcs
c
a 1 31 8
a 31 1 8
a 1 2 10
a 2 1 10
a 2 32 10
a 32 2 10
a 2 3 2
a 3 2 2
a 3 33 4
a 33 3 4
a 7 37 6
a 37 7 6
a 7 8 1
a 8 7 1
a 8 38 3
a 38 8 3
a 8 9 1
a 9 8 1
a 9 39 8
a 39 9 8
a 9 10 3
a 10 9 3
a 10 40 1
a 40 10 1
a 10 11 8
a 11 10 8
a 11 41 6
a 41 11 6
a 11 12 6
a 12 11 6
a 12 42 7
a 42 12 7
a 12 13 9
a 13 12 9
a 13 43 9
a 43 13 9
a 13 14 6
a 14 13 6
a 14 44 5
a 44 14 5
a 14 15 2
a 15 14 2
a 15 45 4
a 45 15 4
a 15 16 6
a 16 15 6
a 16 46 8
a 46 16 8
a 16 17 3
a 17 16 3
a 17 47 1
a 47 17 1
a 17 18 1
a 18 17 1
a 18 19 2
a 19 18 2
a 19 49 4
a 49 19 4
a 19 20 2
a 20 19 2
a 20 50 3
a 50 20 3
a 22 52 6
a 52 22 6
a 22 23 2
a 23 22 2
a 23 53 7
a 53 23 7
a 23 24 7
a 24 23 7
a 24 54 4
a 54 24 4
a 24 25 2
a 25 24 2
a 25 55 6
a 55 25 6
a 25 26 3
a 26 25 3
a 26 56 7
a 56 26 7
a 26 27 5
a 27 26 5
a 27 57 7
a 57 27 7
a 27 28 10
a 28 27 10
a 28 58 1
a 58 28 1
a 30 60 9
a 60 30 9
a 31 61 6
a 61 31 6
a 31 32 10
a 32 31 10
a 32 62 4
a 62 32 4
a 32 33 3
a 33 32 3
a 33 63 7
a 63 33 7
a 33 34 6
a 34 33 6
a 34 64 1
a 64 34 1
a 36 66 2
a 66 36 2
a 36 37 5
a 37 36 5
a 37 67 8
a 67 37 8
a 37 38 8
a 38 37 8
a 38 68 1
a 68 38 1
a 38 39 3
a 39 38 3
a 39 69 3
a 69 39 3
a 39 40 6
a 40 39 6
a 40 70 4
a 70 40 4
a 40 41 1
a 41 40 1
a 41 71 5
a 71 41 5
a 41 42 1
a 42 41 1
a 42 72 10
a 72 42 10
a 42 43 5
a 43 42 5
a 43 73 6
a 73 43 6
a 43 44 7
a 44 43 7
a 44 74 4
a 74 44 4
a 44 45 5
a 45 44 5
a 45 75 4
a 75 45 4
a 45 46 2
a 46 45 2
a 46 76 10
a 76 46 10
a 46 47 1
a 47 46 1
a 47 77 4
a 77 47 4
a 49 79 8
a 79 49 8
a 49 50 3
a 50 49 3
a 50 51 9
a 51 50 9
a 51 81 10
a 81 51 10
a 51 52 8
a 52 51 8
a 52 82 1
a 82 52 1
a 52 53 2
a 53 52 2
a 53 83 8
a 83 53 8
a 53 54 4
a 54 53 4
a 54 84 3
a 84 54 3
a 54 55 8
a 55 54 8
a 55 85 1
a 85 55 1
a 55 56 6
a 56 55 6
a 56 86 5
a 86 56 5
a 56 57 2
a 57 56 2
a 57 87 5
a 87 57 5
a 57 58 4
a 58 57 4
a 58 88 4
a 88 58 4
a 58 59 3
a 59 58 3
a 59 89 7
a 89 59 7
a 59 60 2
a 60 59 2
a 60 90 10
a 90 60 10
a 61 91 5
a 91 61 5
a 61 62 6
a 62 61 6
a 62 92 6
a 92 62 6
a 62 63 4
a 63 62 4
a 63 64 1
a 64 63 1
a 64 94 1
a 94 64 1
a 64 65 7
a 65 64 7
a 65 95 10
a 95 65 10
a 65 66 6
a 66 65 6
a 66 67 7
a 67 66 7
a 67 97 9
a 97 67 9
a 67 68 10
a 68 67 10
a 68 98 7
a 98 68 7
a 68 69 5
a 69 68 5
a 69 99 1
a 99 69 1
a 69 70 3
a 70 69 3
a 70 100 4
a 100 70 4
a 70 71 10
a 71 70 10
a 71 101 7
a 101 71 7
a 71 72 2
a 72 71 2
a 72 73 2
a 73 72 2
a 73 103 2
a 103 73 2
a 73 74 8
a 74 73 8
a 74 104 8
a 104 74 8
a 74 75 2
a 75 74 2
a 75 105 3
a 105 75 3
a 75 76 6
a 76 75 6
a 76 106 1
a 106 76 1
a 76 77 1
a 77 76 1
a 77 107 4
a 107 77 4
a 77 78 1
a 78 77 1
a 78 108 8
a 108 78 8
a 78 79 1
a 79 78 1
a 79 109 4
a 109 79 4
a 81 111 5
a 111 81 5
a 81 82 1
a 82 81 1
a 82 112 4
a 112 82 4
a 82 83 10
a 83 82 10
a 83 113 8
a 113 83 8
a 83 84 7
a 84 83 7
a 84 114 3
a 114 84 3
a 84 85 3
a 85 84 3
a 85 115 4
a 115 85 4
a 85 86 4
a 86 85 4
a 86 116 10
a 116 86 10
a 86 87 10
a 87 86 10
a 87 117 7
a 117 87 7
a 87 88 6
a 88 87 6
a 88 118 1
a 118 88 1
a 88 89 10
a 89 88 10
a 89 119 4
a 119 89 4
a 89 90 2
a 90 89 2
a 91 121 9
a 121 91 9
a 91 92 7
a 92 91 7
a 92 122 5
a 122 92 5
a 94 95 7
a 95 94 7
a 95 125 3
a 125 95 3
a 97 98 2
a 98 97 2
a 98 99 8
a 99 98 8
a 99 129 9
a 129 99 9
a 99 100 1
a 100 99 1
a 100 130 9
a 130 100 9
a 100 101 6
a 101 100 6
a 101 131 2
a 131 101 2
a 103 133 9
a 133 103 9
a 103 104 3
a 104 103 3
a 104 105 3
a 105 104 3
a 105 135 4
a 135 105 4
a 105 106 3
a 106 105 3
a 106 136 9
a 136 106 9
a 106 107 1
a 107 106 1
a 107 137 9
a 137 107 9
a 107 108 5
a 108 107 5
a 108 138 9
a 138 108 9
a 108 109 1
a 109 108 1
a 109 139 4
a 139 109 4
a 109 110 5
a 110 109 5
a 110 111 1
a 111 110 1
a 111 141 8
a 141 111 8
a 111 112 10
a 112 111 10
a 112 142 10
a 142 112 10
a 112 113 10
a 113 112 10
a 113 143 9
a 143 113 9
a 113 114 8
a 114 113 8
a 114 144 5
a 144 114 5
a 114 115 7
a 115 114 7
a 115 145 7
a 145 115 7
a 115 116 5
a 116 115 5
a 116 146 4
a 146 116 4
a 116 117 9
a 117 116 9
a 117 118 6
a 118 117 6
a 118 148 10
a 148 118 10
a 118 119 1
a 119 118 1
a 119 149 1
a 149 119 1
a 121 151 1
a 151 121 1
a 121 122 3
a 122 121 3
a 122 152 6
a 152 122 6
a 122 123 7
a 123 122 7
a 123 153 8
a 153 123 8
a 125 155 2
a 155 125 2
a 125 126 9
a 126 125 9
a 126 156 7
a 156 126 7
a 129 159 9
a 159 129 9
a 129 130 10
a 130 129 10
a 130 160 2
a 160 130 2
a 130 131 7
a 131 130 7
a 131 161 3
a 161 131 3
a 131 132 1
a 132 131 1
a 132 162 3
a 162 132 3
a 132 133 2
a 133 132 2
a 135 165 1
a 165 135 1
a 135 136 7
a 136 135 7
a 136 166 9
a 166 136 9
a 136 137 7
a 137 136 7
a 137 138 7
a 138 137 7
a 138 168 1
a 168 138 1
a 138 139 9
a 139 138 9
a 139 169 7
a 169 139 7
a 141 171 8
a 171 141 8
a 141 142 6
a 142 141 6
a 142 143 2
a 143 142 2
a 143 173 3
a 173 143 3
a 143 144 8
a 144 143 8
a 144 174 7
a 174 144 7
a 144 145 10
a 145 144 10
a 145 175 1
a 175 145 1
a 145 146 5
a 146 145 5
a 146 176 4
a 176 146 4
a 148 178 2
a 178 148 2
a 148 149 7
a 149 148 7
a 149 179 10
a 179 149 10
a 149 150 2
a 150 149 2
a 150 180 4
a 180 150 4
a 151 181 6
a 181 151 6
a 151 152 8
a 152 151 8
a 152 182 6
a 182 152 6
a 152 153 8
a 153 152 8
a 153 183 9
a 183 153 9
a 155 185 6
a 185 155 6
a 155 156 4
a 156 155 4
a 156 186 3
a 186 156 3
a 156 157 2
a 157 156 2
a 157 187 3
a 187 157 3
a 157 158 2
a 158 157 2
a 158 188 3
a 188 158 3
a 158 159 9
a 159 158 9
a 159 189 4
a 189 159 4
a 159 160 1
a 160 159 1
a 160 161 6
a 161 160 6
a 161 191 8
a 191 161 8
a 161 162 3
a 162 161 3
a 162 192 7
a 192 162 7
a 164 194 8
a 194 164 8
a 164 165 8
a 165 164 8
a 165 195 9
a 195 165 9
a 165 166 9
a 166 165 9
a 166 196 4
a 196 166 4
a 168 198 7
a 198 168 7
a 168 169 4
a 169 168 4
a 169 199 10
a 199 169 10
a 173 203 2
a 203 173 2
a 173 174 10
a 174 173 10
a 174 204 2
a 204 174 2
a 174 175 2
a 175 174 2
a 175 205 7
a 205 175 7
a 175 176 4
a 176 175 4
a 176 206 7
a 206 176 7
a 176 177 1
a 177 176 1
a 177 207 8
a 207 177 8
a 177 178 2
a 178 177 2
a 178 179 4
a 179 178 4
a 179 209 3
a 209 179 3
a 179 180 9
a 180 179 9
a 180 210 3
a 210 180 3
a 181 211 1
a 211 181 1
a 181 182 2
a 182 181 2
a 182 212 7
a 212 182 7
a 182 183 3
a 183 182 3
a 183 213 1
a 213 183 1
a 183 184 7
a 184 183 7
a 184 214 7
a 214 184 7
a 184 185 2
a 185 184 2
a 185 215 6
a 215 185 6
a 185 186 7
a 186 185 7
a 186 216 7
a 216 186 7
a 186 187 10
a 187 186 10
a 187 217 5
a 217 187 5
a 187 188 1
a 188 187 1
a 188 218 10
a 218 188 10
a 188 189 3
a 189 188 3
a 189 219 7
a 219 189 7
a 191 221 1
a 221 191 1
a 191 192 1
a 192 191 1
a 192 222 2
a 222 192 2
a 194 224 4
a 224 194 4
a 194 195 2
a 195 194 2
a 195 225 3
a 225 195 3
a 195 196 9
a 196 195 9
a 196 226 2
a 226 196 2
a 196 197 7
a 197 196 7
a 197 227 8
a 227 197 8
a 197 198 7
a 198 197 7
a 198 228 9
a 228 198 9
a 198 199 9
a 199 198 9
a 199 229 1
a 229 199 1
a 202 232 4
a 232 202 4
a 202 203 8
a 203 202 8
a 203 233 2
a 233 203 2
a 203 204 1
a 204 203 1
a 204 234 5
a 234 204 5
a 204 205 7
a 205 204 7
a 205 235 10
a 235 205 10
a 205 206 1
a 206 205 1
a 206 236 8
a 236 206 8
a 206 207 3
a 207 206 3
a 207 237 5
a 237 207 5
a 209 239 7
a 239 209 7
a 209 210 3
a 210 209 3
a 210 240 4
a 240 210 4
a 211 241 9
a 241 211 9
a 211 212 4
a 212 211 4
a 212 242 4
a 242 212 4
a 212 213 1
a 213 212 1
a 213 243 7
a 243 213 7
a 213 214 4
a 214 213 4
a 214 244 5
a 244 214 5
a 214 215 8
a 215 214 8
a 215 245 10
a 245 215 10
a 215 216 8
a 216 215 8
a 216 246 3
a 246 216 3
a 216 217 1
a 217 216 1
a 217 218 10
a 218 217 10
a 218 248 9
a 248 218 9
a 218 219 4
a 219 218 4
a 219 249 4
a 249 219 4
a 219 220 10
a 220 219 10
a 220 250 10
a 250 220 10
a 220 221 8
a 221 220 8
a 221 251 4
a 251 221 4
a 221 222 9
a 222 221 9
a 222 252 3
a 252 222 3
a 222 223 2
a 223 222 2
a 223 253 7
a 253 223 7
a 223 224 2
a 224 223 2
a 224 254 1
a 254 224 1
a 224 225 8
a 225 224 8
a 225 255 8
a 255 225 8
a 225 226 10
a 226 225 10
a 226 227 3
a 227 226 3
a 227 228 1
a 228 227 1
a 228 258 3
a 258 228 3
a 228 229 7
a 229 228 7
a 229 259 1
a 259 229 1
a 229 230 4
a 230 229 4
a 230 260 6
a 260 230 6
a 230 231 7
a 231 230 7
a 231 261 8
a 261 231 8
a 231 232 7
a 232 231 7
a 232 262 5
a 262 232 5
a 232 233 3
a 233 232 3
a 233 234 5
a 234 233 5
a 234 264 1
a 264 234 1
a 234 235 4
a 235 234 4
a 235 265 2
a 265 235 2
a 235 236 8
a 236 235 8
a 236 266 7
a 266 236 7
a 236 237 7
a 237 236 7
a 237 267 5
a 267 237 5
a 237 238 8
a 238 237 8
a 238 239 1
a 239 238 1
a 239 269 7
a 269 239 7
a 239 240 8
a 240 239 8
a 240 270 10
a 270 240 10
a 241 271 1
a 271 241 1
a 241 242 7
a 242 241 7
a 242 243 7
a 243 242 7
a 243 273 8
a 273 243 8
a 243 244 7
a 244 243 7
a 244 274 8
a 274 244 8
a 244 245 7
a 245 244 7
a 245 275 2
a 275 245 2
a 245 246 9
a 246 245 9
a 246 276 7
a 276 246 7
a 248 278 7
a 278 248 7
a 248 249 8
a 249 248 8
a 249 279 6
a 279 249 6
a 249 250 6
a 250 249 6
a 250 280 5
a 280 250 5
a 250 251 6
a 251 250 6
a 251 281 1
a 281 251 1
a 251 252 1
a 252 251 1
a 252 282 2
a 282 252 2
a 252 253 3
a 253 252 3
a 253 283 1
a 283 253 1
a 253 254 3
a 254 253 3
a 254 284 9
a 284 254 9
a 254 255 3
a 255 254 3
a 255 285 7
a 285 255 7
a 258 288 8
a 288 258 8
a 258 259 4
a 259 258 4
a 259 289 5
a 289 259 5
a 259 260 8
a 260 259 8
a 260 290 3
a 290 260 3
a 260 261 6
a 261 260 6
a 261 291 3
a 291 261 3
a 261 262 1
a 262 261 1
a 262 292 4
a 292 262 4
a 264 294 7
a 294 264 7
a 264 265 2
a 265 264 2
a 265 295 8
a 295 265 8
a 265 266 4
a 266 265 4
a 266 296 6
a 296 266 6
a 266 267 1
a 267 266 1
a 267 297 2
a 297 267 2
a 269 299 3
a 299 269 3
a 269 270 10
a 270 269 10
a 270 300 4
a 300 270 4
a 271 301 3
a 301 271 3
a 273 274 2
a 274 273 2
a 274 275 1
a 275 274 1
a 275 305 1
a 305 275 1
a 275 276 1
a 276 275 1
a 276 306 7
a 306 276 7
a 276 277 8
a 277 276 8
a 277 307 5
a 307 277 5
a 277 278 5
a 278 277 5
a 278 308 7
a 308 278 7
a 278 279 6
a 279 278 6
a 279 309 2
a 309 279 2
a 279 280 2
a 280 279 2
a 280 281 8
a 281 280 8
a 281 311 8
a 311 281 8
a 281 282 4
a 282 281 4
a 282 312 4
a 312 282 4
a 282 283 2
a 283 282 2
a 283 313 5
a 313 283 5
a 283 284 4
a 284 283 4
a 284 314 3
a 314 284 3
a 284 285 7
a 285 284 7
a 285 315 1
a 315 285 1
a 287 317 4
a 317 287 4
a 287 288 6
a 288 287 6
a 288 318 8
a 318 288 8
a 288 289 4
a 289 288 4
a 289 319 1
a 319 289 1
a 289 290 8
a 290 289 8
a 290 320 6
a 320 290 6
a 290 291 8
a 291 290 8
a 291 321 6
a 321 291 6
a 291 292 3
a 292 291 3
a 292 322 7
a 322 292 7
a 292 293 4
a 293 292 4
a 293 323 8
a 323 293 8
a 293 294 8
a 294 293 8
a 294 295 9
a 295 294 9
a 295 325 7
a 325 295 7
a 295 296 1
a 296 295 1
a 296 326 9
a 326 296 9
a 296 297 8
a 297 296 8
a 297 327 6
a 327 297 6
a 299 329 1
a 329 299 1
a 299 300 7
a 300 299 7
a 300 330 7
a 330 300 7
a 301 331 3
a 331 301 3
a 301 302 8
a 302 301 8
a 302 332 3
a 332 302 3
a 305 335 6
a 335 305 6
a 305 306 10
a 306 305 10
a 306 336 4
a 336 306 4
a 306 307 3
a 307 306 3
a 307 337 6
a 337 307 6
a 307 308 2
a 308 307 2
a 308 338 2
a 338 308 2
a 308 309 2
a 309 308 2
a 309 339 1
a 339 309 1
a 311 341 9
a 341 311 9
a 311 312 5
a 312 311 5
a 312 342 7
a 342 312 7
a 312 313 5
a 313 312 5
a 313 343 3
a 343 313 3
a 313 314 1
a 314 313 1
a 314 344 3
a 344 314 3
a 314 315 4
a 315 314 4
a 315 345 8
a 345 315 8
a 315 316 8
a 316 315 8
a 316 346 3
a 346 316 3
a 316 317 9
a 317 316 9
a 317 347 6
a 347 317 6
a 317 318 7
a 318 317 7
a 318 348 5
a 348 318 5
a 318 319 10
a 319 318 10
a 319 349 2
a 349 319 2
a 319 320 1
a 320 319 1
a 320 350 10
a 350 320 10
a 320 321 3
a 321 320 3
a 321 351 9
a 351 321 9
a 321 322 2
a 322 321 2
a 322 352 7
a 352 322 7
a 322 323 5
a 323 322 5
a 325 355 2
a 355 325 2
a 325 326 4
a 326 325 4
a 326 356 9
a 356 326 9
a 326 327 7
a 327 326 7
a 327 357 10
a 357 327 10
a 327 328 2
a 328 327 2
a 328 358 10
a 358 328 10
a 328 329 2
a 329 328 2
a 329 359 8
a 359 329 8
a 329 330 1
a 330 329 1
a 330 360 4
a 360 330 4
a 331 361 4
a 361 331 4
a 331 332 9
a 332 331 9
a 332 333 6
a 333 332 6
a 333 363 3
a 363 333 3
a 335 365 3
a 365 335 3
a 335 336 10
a 336 335 10
a 336 366 4
a 366 336 4
a 336 337 7
a 337 336 7
a 337 367 10
a 367 337 10
a 337 338 1
a 338 337 1
a 338 368 7
a 368 338 7
a 338 339 2
a 339 338 2
a 339 369 9
a 369 339 9
a 339 340 1
a 340 339 1
a 340 370 5
a 370 340 5
a 340 341 4
a 341 340 4
a 341 371 7
a 371 341 7
a 341 342 2
a 342 341 2
a 342 372 6
a 372 342 6
a 342 343 3
a 343 342 3
a 343 373 6
a 373 343 6
a 343 344 7
a 344 343 7
a 344 374 3
a 374 344 3
a 344 345 6
a 345 344 6
a 345 375 5
a 375 345 5
a 345 346 1
a 346 345 1
a 346 376 9
a 376 346 9
a 346 347 6
a 347 346 6
a 347 377 9
a 377 347 9
a 347 348 9
a 348 347 9
a 348 378 3
a 378 348 3
a 348 349 6
a 349 348 6
a 349 379 10
a 379 349 10
a 349 350 10
a 350 349 10
a 350 380 9
a 380 350 9
a 350 351 3
a 351 350 3
a 351 381 2
a 381 351 2
a 351 352 7
a 352 351 7
a 352 382 6
a 382 352 6
a 354 384 3
a 384 354 3
a 354 355 9
a 355 354 9
a 355 385 7
a 385 355 7
a 355 356 9
a 356 355 9
a 356 386 8
a 386 356 8
a 356 357 3
a 357 356 3
a 357 387 8
a 387 357 8
a 357 358 1
a 358 357 1
a 358 388 1
a 388 358 1
a 358 359 7
a 359 358 7
a 359 389 3
a 389 359 3
a 359 360 1
a 360 359 1
a 360 390 9
a 390 360 9
a 361 391 3
a 391 361 3
a 363 393 9
a 393 363 9
a 363 364 8
a 364 363 8
a 364 394 5
a 394 364 5
a 364 365 9
a 365 364 9
a 365 366 7
a 366 365 7
a 366 396 6
a 396 366 6
a 366 367 4
a 367 366 4
a 367 397 2
a 397 367 2
a 367 368 8
a 368 367 8
a 368 398 10
a 398 368 10
a 368 369 9
a 369 368 9
a 369 399 10
a 399 369 10
a 369 370 8
a 370 369 8
a 370 400 4
a 400 370 4
a 370 371 9
a 371 370 9
a 371 401 4
a 401 371 4
a 371 372 8
a 372 371 8
a 372 373 6
a 373 372 6
a 373 403 1
a 403 373 1
a 373 374 10
a 374 373 10
a 374 404 5
a 404 374 5
a 374 375 3
a 375 374 3
a 375 405 2
a 405 375 2
a 375 376 10
a 376 375 10
a 376 406 7
a 406 376 7
a 376 377 7
a 377 376 7
a 377 407 4
a 407 377 4
a 377 378 1
a 378 377 1
a 378 408 6
a 408 378 6
a 378 379 6
a 379 378 6
a 379 409 9
a 409 379 9
a 379 380 6
a 380 379 6
a 380 410 7
a 410 380 7
a 380 381 8
a 381 380 8
a 381 382 7
a 382 381 7
a 382 412 3
a 412 382 3
a 382 383 5
a 383 382 5
a 383 413 3
a 413 383 3
a 383 384 4
a 384 383 4
a 384 414 3
a 414 384 3
a 384 385 10
a 385 384 10
a 385 415 3
a 415 385 3
a 385 386 9
a 386 385 9
a 386 416 6
a 416 386 6
a 386 387 4
a 387 386 4
a 387 417 4
a 417 387 4
a 387 388 5
a 388 387 5
a 388 418 6
a 418 388 6
a 388 389 4
a 389 388 4
a 389 419 9
a 419 389 9
a 389 390 7
a 390 389 7
a 390 420 3
a 420 390 3
a 391 421 7
a 421 391 7
a 391 392 10
a 392 391 10
a 392 422 3
a 422 392 3
a 392 393 5
a 393 392 5
a 393 423 8
a 423 393 8
a 393 394 6
a 394 393 6
a 394 424 5
a 424 394 5
a 396 426 5
a 426 396 5
a 396 397 5
a 397 396 5
a 397 427 4
a 427 397 4
a 397 398 2
a 398 397 2
a 398 428 10
a 428 398 10
a 398 399 8
a 399 398 8
a 399 429 1
a 429 399 1
a 399 400 1
a 400 399 1
a 400 430 10
a 430 400 10
a 400 401 3
a 401 400 3
a 401 431 3
a 431 401 3
a 403 433 8
a 433 403 8
a 403 404 1
a 404 403 1
a 404 434 10
a 434 404 10
a 404 405 3
a 405 404 3
a 405 435 8
a 435 405 8
a 405 406 3
a 406 405 3
a 406 436 8
a 436 406 8
a 406 407 9
a 407 406 9
a 407 437 2
a 437 407 2
a 407 408 4
a 408 407 4
a 408 438 10
a 438 408 10
a 408 409 10
a 409 408 10
a 409 439 10
a 439 409 10
a 409 410 9
a 410 409 9
a 410 440 8
a 440 410 8
a 412 442 8
a 442 412 8
a 412 413 1
a 413 412 1
a 413 443 5
a 443 413 5
a 413 414 8
a 414 413 8
a 414 444 5
a 444 414 5
a 414 415 2
a 415 414 2
a 415 445 2
a 445 415 2
a 415 416 7
a 416 415 7
a 416 446 1
a 446 416 1
a 416 417 9
a 417 416 9
a 417 447 10
a 447 417 10
a 417 418 4
a 418 417 4
a 418 448 3
a 448 418 3
a 418 419 8
a 419 418 8
a 419 449 5
a 449 419 5
a 419 420 10
a 420 419 10
a 420 450 5
a 450 420 5
a 421 451 5
a 451 421 5
a 421 422 1
a 422 421 1
a 422 452 1
a 452 422 1
a 422 423 9
a 423 422 9
a 423 453 5
a 453 423 5
a 423 424 1
a 424 423 1
a 424 454 4
a 454 424 4
a 424 425 6
a 425 424 6
a 425 455 4
a 455 425 4
a 425 426 2
a 426 425 2
a 426 456 7
a 456 426 7
a 426 427 9
a 427 426 9
a 427 457 1
a 457 427 1
a 427 428 6
a 428 427 6
a 428 458 4
a 458 428 4
a 428 429 10
a 429 428 10
a 429 459 4
a 459 429 4
a 429 430 3
a 430 429 3
a 430 460 4
a 460 430 4
a 430 431 4
a 431 430 4
a 431 461 10
a 461 431 10
a 431 432 5
a 432 431 5
a 432 462 4
a 462 432 4
a 432 433 10
a 433 432 10
a 433 434 6
a 434 433 6
a 434 464 3
a 464 434 3
a 434 435 6
a 435 434 6
a 435 465 3
a 465 435 3
a 435 436 5
a 436 435 5
a 436 466 4
a 466 436 4
a 436 437 7
a 437 436 7
a 437 467 7
a 467 437 7
a 437 438 7
a 438 437 7
a 438 468 6
a 468 438 6
a 438 439 9
a 439 438 9
a 439 469 6
a 469 439 6
a 439 440 7
a 440 439 7
a 440 470 10
a 470 440 10
a 440 441 7
a 441 440 7
a 441 471 2
a 471 441 2
a 441 442 7
a 442 441 7
a 442 472 3
a 472 442 3
a 442 443 3
a 443 442 3
a 443 473 3
a 473 443 3
a 443 444 4
a 444 443 4
a 444 474 6
a 474 444 6
a 444 445 10
a 445 444 10
a 445 475 7
a 475 445 7
a 445 446 7
a 446 445 7
a 446 476 8
a 476 446 8
a 446 447 4
a 447 446 4
a 447 448 9
a 448 447 9
a 448 478 4
a 478 448 4
a 448 449 3
a 449 448 3
a 449 479 10
a 479 449 10
a 449 450 4
a 450 449 4
a 450 480 3
a 480 450 3
a 451 481 8
a 481 451 8
a 451 452 8
a 452 451 8
a 452 453 8
a 453 452 8
a 453 483 1
a 483 453 1
a 453 454 1
a 454 453 1
a 454 484 5
a 484 454 5
a 454 455 2
a 455 454 2
a 455 485 1
a 485 455 1
a 455 456 3
a 456 455 3
a 456 486 9
a 486 456 9
a 456 457 2
a 457 456 2
a 457 487 5
a 487 457 5
a 457 458 5
a 458 457 5
a 458 488 7
a 488 458 7
a 458 459 8
a 459 458 8
a 459 489 7
a 489 459 7
a 459 460 2
a 460 459 2
a 460 490 4
a 490 460 4
a 460 461 8
a 461 460 8
a 461 491 1
a 491 461 1
a 461 462 6
a 462 461 6
a 462 492 4
a 492 462 4
a 464 494 10
a 494 464 10
a 464 465 8
a 465 464 8
a 465 495 1
a 495 465 1
a 465 466 8
a 466 465 8
a 466 496 8
a 496 466 8
a 466 467 9
a 467 466 9
a 467 468 7
a 468 467 7
a 468 498 1
a 498 468 1
a 468 469 8
a 469 468 8
a 469 499 8
a 499 469 8
a 469 470 2
a 470 469 2
a 470 500 9
a 500 470 9
a 470 471 8
a 471 470 8
a 471 501 2
a 501 471 2
a 471 472 6
a 472 471 6
a 472 502 3
a 502 472 3
a 472 473 7
a 473 472 7
a 473 503 6
a 503 473 6
a 473 474 1
a 474 473 1
a 474 504 7
a 504 474 7
a 474 475 5
a 475 474 5
a 475 505 1
a 505 475 1
a 475 476 8
a 476 475 8
a 478 508 1
a 508 478 1
a 478 479 3
a 479 478 3
a 479 509 6
a 509 479 6
a 479 480 10
a 480 479 10
a 480 510 9
a 510 480 9
a 481 511 9
a 511 481 9
a 483 513 3
a 513 483 3
a 483 484 5
a 484 483 5
a 484 514 9
a 514 484 9
a 484 485 7
a 485 484 7
a 485 515 6
a 515 485 6
a 485 486 3
a 486 485 3
a 486 516 3
a 516 486 3
a 486 487 2
a 487 486 2
a 487 517 10
a 517 487 10
a 487 488 4
a 488 487 4
a 488 518 5
a 518 488 5
a 488 489 10
a 489 488 10
a 489 519 6
a 519 489 6
a 489 490 6
a 490 489 6
a 490 520 10
a 520 490 10
a 490 491 8
a 491 490 8
a 491 521 9
a 521 491 9
a 491 492 1
a 492 491 1
a 492 522 5
a 522 492 5
a 492 493 6
a 493 492 6
a 493 494 1
a 494 493 1
a 494 524 1
a 524 494 1
a 494 495 1
a 495 494 1
a 495 525 4
a 525 495 4
a 495 496 4
a 496 495 4
a 496 526 2
a 526 496 2
a 498 528 9
a 528 498 9
a 498 499 1
a 499 498 1
a 499 500 1
a 500 499 1
a 500 530 9
a 530 500 9
a 500 501 3
a 501 500 3
a 501 531 1
a 531 501 1
a 501 502 10
a 502 501 10
a 502 503 4
a 503 502 4
a 503 504 6
a 504 503 6
a 504 534 10
a 534 504 10
a 504 505 5
a 505 504 5
a 505 535 2
a 535 505 2
a 507 537 6
a 537 507 6
a 507 508 10
a 508 507 10
a 508 538 3
a 538 508 3
a 508 509 8
a 509 508 8
a 509 539 6
a 539 509 6
a 509 510 10
a 510 509 10
a 510 540 10
a 540 510 10
a 511 541 1
a 541 511 1
a 511 512 8
a 512 511 8
a 512 542 5
a 542 512 5
a 512 513 5
a 513 512 5
a 513 543 4
a 543 513 4
a 513 514 5
a 514 513 5
a 514 544 7
a 544 514 7
a 514 515 7
a 515 514 7
a 515 545 1
a 545 515 1
a 515 516 9
a 516 515 9
a 516 546 3
a 546 516 3
a 516 517 10
a 517 516 10
a 517 518 5
a 518 517 5
a 518 548 5
a 548 518 5
a 518 519 9
a 519 518 9
a 519 549 1
a 549 519 1
a 519 520 2
a 520 519 2
a 520 550 9
a 550 520 9
a 520 521 8
a 521 520 8
a 521 551 6
a 551 521 6
a 521 522 6
a 522 521 6
a 522 552 2
a 552 522 2
a 524 554 5
a 554 524 5
a 524 525 7
a 525 524 7
a 525 555 8
a 555 525 8
a 525 526 9
a 526 525 9
a 528 558 9
a 558 528 9
a 530 531 5
a 531 530 5
a 531 561 1
a 561 531 1
a 534 564 6
a 564 534 6
a 534 535 9
a 535 534 9
a 535 565 10
a 565 535 10
a 535 536 7
a 536 535 7
a 536 566 6
a 566 536 6
a 536 537 1
a 537 536 1
a 537 567 6
a 567 537 6
a 537 538 2
a 538 537 2
a 538 539 8
a 539 538 8
a 539 569 3
a 569 539 3
a 539 540 3
a 540 539 3
a 540 570 7
a 570 540 7
a 541 571 2
a 571 541 2
a 541 542 2
a 542 541 2
a 542 572 6
a 572 542 6
a 542 543 7
a 543 542 7
a 543 573 3
a 573 543 3
a 543 544 1
a 544 543 1
a 544 574 10
a 574 544 10
a 544 545 6
a 545 544 6
a 545 575 10
a 575 545 10
a 545 546 6
a 546 545 6
a 546 576 3
a 576 546 3
a 548 578 4
a 578 548 4
a 548 549 3
a 549 548 3
a 549 579 8
a 579 549 8
a 549 550 5
a 550 549 5
a 550 580 1
a 580 550 1
a 550 551 5
a 551 550 5
a 551 581 4
a 581 551 4
a 551 552 6
a 552 551 6
a 552 582 4
a 582 552 4
a 552 553 1
a 553 552 1
a 553 583 3
a 583 553 3
a 553 554 6
a 554 553 6
a 554 584 7
a 584 554 7
a 554 555 2
a 555 554 2
a 555 585 9
a 585 555 9
a 558 588 1
a 588 558 1
a 558 559 10
a 559 558 10
a 559 589 6
a 589 559 6
a 561 591 6
a 591 561 6
a 561 562 5
a 562 561 5
a 562 563 8
a 563 562 8
a 563 593 8
a 593 563 8
a 563 564 4
a 564 563 4
a 564 594 4
a 594 564 4
a 564 565 3
a 565 564 3
a 565 595 1
a 595 565 1
a 565 566 6
a 566 565 6
a 566 596 8
a 596 566 8
a 566 567 5
a 567 566 5
a 567 597 3
a 597 567 3
a 569 599 6
a 599 569 6
a 569 570 1
a 570 569 1
a 570 600 8
a 600 570 8
a 571 601 5
a 601 571 5
a 571 572 8
a 572 571 8
a 572 602 1
a 602 572 1
a 572 573 8
a 573 572 8
a 573 603 10
a 603 573 10
a 573 574 9
a 574 573 9
a 574 604 6
a 604 574 6
a 574 575 3
a 575 574 3
a 575 605 7
a 605 575 7
a 575 576 3
a 576 575 3
a 576 606 8
a 606 576 8
a 576 577 10
a 577 576 10
a 577 607 10
a 607 577 10
a 577 578 9
a 578 577 9
a 578 608 10
a 608 578 10
a 578 579 4
a 579 578 4
a 579 609 6
a 609 579 6
a 579 580 4
a 580 579 4
a 580 610 7
a 610 580 7
a 580 581 7
a 581 580 7
a 581 611 6
a 611 581 6
a 581 582 3
a 582 581 3
a 582 612 5
a 612 582 5
a 582 583 9
a 583 582 9
a 583 613 1
a 613 583 1
a 583 584 2
a 584 583 2
a 584 614 6
a 614 584 6
a 584 585 8
a 585 584 8
a 585 615 9
a 615 585 9
a 585 586 3
a 586 585 3
a 586 616 9
a 616 586 9
a 586 587 1
a 587 586 1
a 587 617 2
a 617 587 2
a 587 588 10
a 588 587 10
a 588 618 7
a 618 588 7
a 588 589 6
a 589 588 6
a 589 619 7
a 619 589 7
a 591 621 1
a 621 591 1
a 593 623 7
a 623 593 7
a 593 594 5
a 594 593 5
a 594 624 3
a 624 594 3
a 594 595 2
a 595 594 2
a 595 625 1
a 625 595 1
a 595 596 6
a 596 595 6
a 596 597 2
a 597 596 2
a 597 627 1
a 627 597 1
a 597 598 3
a 598 597 3
a 598 628 3
a 628 598 3
a 598 599 3
a 599 598 3
a 599 600 10
a 600 599 10
a 600 630 7
a 630 600 7
a 601 631 8
a 631 601 8
a 601 602 5
a 602 601 5
a 602 632 8
a 632 602 8
a 602 603 10
a 603 602 10
a 603 633 10
a 633 603 10
a 603 604 2
a 604 603 2
a 604 634 6
a 634 604 6
a 604 605 9
a 605 604 9
a 605 635 6
a 635 605 6
a 605 606 5
a 606 605 5
a 606 636 7
a 636 606 7
a 606 607 8
a 607 606 8
a 607 637 10
a 637 607 10
a 607 608 3
a 608 607 3
a 608 638 1
a 638 608 1
a 608 609 1
a 609 608 1
a 609 610 9
a 610 609 9
a 610 640 9
a 640 610 9
a 610 611 9
a 611 610 9
a 611 641 10
a 641 611 10
a 611 612 9
a 612 611 9
a 612 642 9
a 642 612 9
a 612 613 3
a 613 612 3
a 613 643 2
a 643 613 2
a 613 614 6
a 614 613 6
a 614 644 5
a 644 614 5
a 614 615 3
a 615 614 3
a 615 645 5
a 645 615 5
a 615 616 6
a 616 615 6
a 616 646 6
a 646 616 6
a 616 617 9
a 617 616 9
a 617 647 10
a 647 617 10
a 617 618 8
a 618 617 8
a 618 648 5
a 648 618 5
a 618 619 4
a 619 618 4
a 619 649 6
a 649 619 6
a 619 620 6
a 620 619 6
a 620 650 4
a 650 620 4
a 620 621 2
a 621 620 2
a 621 651 8
a 651 621 8
a 621 622 2
a 622 621 2
a 622 652 10
a 652 622 10
a 622 623 8
a 623 622 8
a 623 653 5
a 653 623 5
a 623 624 6
a 624 623 6
a 624 654 9
a 654 624 9
a 624 625 1
a 625 624 1
a 625 655 4
a 655 625 4
a 627 657 3
a 657 627 3
a 627 628 10
a 628 627 10
a 628 658 2
a 658 628 2
a 630 660 10
a 660 630 10
a 631 661 5
a 661 631 5
a 631 632 10
a 632 631 10
a 632 633 3
a 633 632 3
a 633 663 9
a 663 633 9
a 633 634 5
a 634 633 5
a 634 664 8
a 664 634 8
a 634 635 5
a 635 634 5
a 635 665 10
a 665 635 10
a 635 636 3
a 636 635 3
a 636 666 3
a 666 636 3
a 636 637 9
a 637 636 9
a 637 667 2
a 667 637 2
a 637 638 4
a 638 637 4
a 640 670 10
a 670 640 10
a 640 641 10
a 641 640 10
a 641 671 7
a 671 641 7
a 641 642 7
a 642 641 7
a 642 672 6
a 672 642 6
a 642 643 7
a 643 642 7
a 643 673 3
a 673 643 3
a 643 644 10
a 644 643 10
a 644 645 1
a 645 644 1
a 645 675 8
a 675 645 8
a 645 646 2
a 646 645 2
a 646 676 3
a 676 646 3
a 646 647 7
a 647 646 7
a 647 648 4
a 648 647 4
a 648 678 1
a 678 648 1
a 648 649 1
a 649 648 1
a 649 679 5
a 679 649 5
a 649 650 1
a 650 649 1
a 650 680 1
a 680 650 1
a 650 651 4
a 651 650 4
a 651 681 1
a 681 651 1
a 651 652 8
a 652 651 8
a 652 682 4
a 682 652 4
a 652 653 4
a 653 652 4
a 653 683 4
a 683 653 4
a 653 654 5
a 654 653 5
a 654 684 4
a 684 654 4
a 654 655 4
a 655 654 4
a 655 685 6
a 685 655 6
a 655 656 7
a 656 655 7
a 656 657 6
a 657 656 6
a 657 658 8
a 658 657 8
a 658 688 2
a 688 658 2
a 660 690 3
a 690 660 3
a 661 691 10
a 691 661 10
a 663 693 5
a 693 663 5
a 663 664 10
a 664 663 10
a 664 694 8
a 694 664 8
a 664 665 1
a 665 664 1
a 665 695 8
a 695 665 8
a 665 666 7
a 666 665 7
a 666 667 9
a 667 666 9
a 667 697 7
a 697 667 7
a 669 699 2
a 699 669 2
a 669 670 4
a 670 669 4
a 670 700 6
a 700 670 6
a 670 671 6
a 671 670 6
a 671 701 4
a 701 671 4
a 671 672 3
a 672 671 3
a 672 702 1
a 702 672 1
a 672 673 5
a 673 672 5
a 673 703 9
a 703 673 9
a 675 705 10
a 705 675 10
a 675 676 4
a 676 675 4
a 676 706 3
a 706 676 3
a 678 708 5
a 708 678 5
a 678 679 2
a 679 678 2
a 679 709 6
a 709 679 6
a 679 680 10
a 680 679 10
a 680 710 2
a 710 680 2
a 680 681 5
a 681 680 5
a 681 711 2
a 711 681 2
a 681 682 7
a 682 681 7
a 682 712 2
a 712 682 2
a 682 683 1
a 683 682 1
a 683 713 2
a 713 683 2
a 683 684 5
a 684 683 5
a 684 714 7
a 714 684 7
a 684 685 9
a 685 684 9
a 685 715 10
a 715 685 10
a 688 718 7
a 718 688 7
a 688 689 5
a 689 688 5
a 689 719 4
a 719 689 4
a 689 690 9
a 690 689 9
a 690 720 3
a 720 690 3
a 691 721 7
a 721 691 7
a 691 692 8
a 692 691 8
a 692 722 7
a 722 692 7
a 692 693 10
a 693 692 10
a 693 723 4
a 723 693 4
a 693 694 1
a 694 693 1
a 694 724 4
a 724 694 4
a 694 695 8
a 695 694 8
a 695 725 4
a 725 695 4
a 697 727 4
a 727 697 4
a 697 698 8
a 698 697 8
a 698 728 6
a 728 698 6
a 698 699 8
a 699 698 8
a 699 729 4
a 729 699 4
a 699 700 10
a 700 699 10
a 700 730 1
a 730 700 1
a 700 701 3
a 701 700 3
a 701 731 7
a 731 701 7
a 701 702 10
a 702 701 10
a 702 732 10
a 732 702 10
a 702 703 5
a 703 702 5
a 703 733 2
a 733 703 2
a 703 704 8
a 704 703 8
a 704 705 4
a 705 704 4
a 705 735 10
a 735 705 10
a 705 706 1
a 706 705 1
a 706 736 1
a 736 706 1
a 706 707 5
a 707 706 5
a 707 737 4
a 737 707 4
a 707 708 3
a 708 707 3
a 708 738 9
a 738 708 9
a 708 709 9
a 709 708 9
a 709 739 8
a 739 709 8
a 709 710 6
a 710 709 6
a 710 711 4
a 711 710 4
a 711 741 8
a 741 711 8
a 711 712 10
a 712 711 10
a 712 742 3
a 742 712 3
a 712 713 4
a 713 712 4
a 713 714 4
a 714 713 4
a 714 744 5
a 744 714 5
a 714 715 4
a 715 714 4
a 715 745 10
a 745 715 10
a 715 716 1
a 716 715 1
a 716 746 1
a 746 716 1
a 716 717 6
a 717 716 6
a 717 747 5
a 747 717 5
a 717 718 2
a 718 717 2
a 718 748 7
a 748 718 7
a 718 719 4
a 719 718 4
a 719 749 3
a 749 719 3
a 719 720 3
a 720 719 3
a 720 750 10
a 750 720 10
a 721 751 3
a 751 721 3
a 721 722 4
a 722 721 4
a 722 752 10
a 752 722 10
a 722 723 2
a 723 722 2
a 723 753 9
a 753 723 9
a 723 724 2
a 724 723 2
a 724 754 6
a 754 724 6
a 724 725 6
a 725 724 6
a 725 755 1
a 755 725 1
a 725 726 3
a 726 725 3
a 726 756 3
a 756 726 3
a 726 727 7
a 727 726 7
a 727 757 5
a 757 727 5
a 727 728 6
a 728 727 6
a 728 758 1
a 758 728 1
a 728 729 3
a 729 728 3
a 729 759 2
a 759 729 2
a 729 730 7
a 730 729 7
a 730 760 2
a 760 730 2
a 730 731 9
a 731 730 9
a 731 761 3
a 761 731 3
a 731 732 6
a 732 731 6
a 732 762 4
a 762 732 4
a 732 733 5
a 733 732 5
a 733 763 2
a 763 733 2
a 735 765 2
a 765 735 2
a 735 736 7
a 736 735 7
a 736 766 2
a 766 736 2
a 736 737 2
a 737 736 2
a 737 767 4
a 767 737 4
a 737 738 5
a 738 737 5
a 738 768 7
a 768 738 7
a 738 739 8
a 739 738 8
a 739 769 5
a 769 739 5
a 741 771 6
a 771 741 6
a 741 742 7
a 742 741 7
a 742 772 6
a 772 742 6
a 744 774 6
a 774 744 6
a 744 745 7
a 745 744 7
a 745 775 9
a 775 745 9
a 745 746 7
a 746 745 7
a 746 776 7
a 776 746 7
a 746 747 10
a 747 746 10
a 747 777 4
a 777 747 4
a 747 748 10
a 748 747 10
a 748 778 1
a 778 748 1
a 748 749 6
a 749 748 6
a 749 779 8
a 779 749 8
a 749 750 10
a 750 749 10
a 750 780 5
a 780 750 5
a 751 781 9
a 781 751 9
a 751 752 4
a 752 751 4
a 752 782 3
a 782 752 3
a 752 753 3
a 753 752 3
a 753 783 8
a 783 753 8
a 753 754 7
a 754 753 7
a 754 784 8
a 784 754 8
a 754 755 9
a 755 754 9
a 755 785 5
a 785 755 5
a 755 756 8
a 756 755 8
a 756 757 7
a 757 756 7
a 757 787 1
a 787 757 1
a 757 758 7
a 758 757 7
a 758 788 9
a 788 758 9
a 758 759 5
a 759 758 5
a 759 789 1
a 789 759 1
a 759 760 8
a 760 759 8
a 760 790 8
a 790 760 8
a 760 761 8
a 761 760 8
a 761 762 2
a 762 761 2
a 762 792 7
a 792 762 7
a 762 763 1
a 763 762 1
a 763 793 2
a 793 763 2
a 763 764 5
a 764 763 5
a 764 794 6
a 794 764 6
a 764 765 7
a 765 764 7
a 765 766 2
a 766 765 2
a 766 796 10
a 796 766 10
a 766 767 5
a 767 766 5
a 767 768 2
a 768 767 2
a 768 798 2
a 798 768 2
a 768 769 7
a 769 768 7
a 769 799 4
a 799 769 4
a 769 770 8
a 770 769 8
a 770 800 5
a 800 770 5
a 770 771 9
a 771 770 9
a 771 801 3
a 801 771 3
a 771 772 7
a 772 771 7
a 772 802 10
a 802 772 10
a 772 773 2
a 773 772 2
a 773 803 3
a 803 773 3
a 773 774 3
a 774 773 3
a 774 804 8
a 804 774 8
a 774 775 8
a 775 774 8
a 775 805 10
a 805 775 10
a 775 776 1
a 776 775 1
a 776 806 10
a 806 776 10
a 776 777 7
a 777 776 7
a 777 778 10
a 778 777 10
a 778 808 7
a 808 778 7
a 778 779 2
a 779 778 2
a 779 809 10
a 809 779 10
a 779 780 3
a 780 779 3
a 780 810 7
a 810 780 7
a 781 811 10
a 811 781 10
a 781 782 10
a 782 781 10
a 782 812 3
a 812 782 3
a 782 783 9
a 783 782 9
a 783 813 9
a 813 783 9
a 783 784 6
a 784 783 6
a 784 814 6
a 814 784 6
a 784 785 1
a 785 784 1
a 785 815 2
a 815 785 2
a 787 817 2
a 817 787 2
a 787 788 10
a 788 787 10
a 788 818 10
a 818 788 10
a 788 789 3
a 789 788 3
a 789 819 7
a 819 789 7
a 789 790 1
a 790 789 1
a 790 820 1
a 820 790 1
a 792 822 8
a 822 792 8
a 792 793 5
a 793 792 5
a 793 823 2
a 823 793 2
a 793 794 1
a 794 793 1
a 794 824 5
a 824 794 5
a 796 826 2
a 826 796 2
a 798 828 2
a 828 798 2
a 798 799 4
a 799 798 4
a 799 829 7
a 829 799 7
a 799 800 9
a 800 799 9
a 800 830 8
a 830 800 8
a 800 801 5
a 801 800 5
a 801 831 6
a 831 801 6
a 801 802 9
a 802 801 9
a 802 832 1
a 832 802 1
a 802 803 1
a 803 802 1
a 803 833 2
a 833 803 2
a 803 804 8
a 804 803 8
a 804 834 6
a 834 804 6
a 804 805 3
a 805 804 3
a 805 835 7
a 835 805 7
a 805 806 2
a 806 805 2
a 806 836 8
a 836 806 8
a 808 838 10
a 838 808 10
a 808 809 8
a 809 808 8
a 809 839 6
a 839 809 6
a 809 810 9
a 810 809 9
a 810 840 9
a 840 810 9
a 811 841 1
a 841 811 1
a 811 812 3
a 812 811 3
a 812 842 1
a 842 812 1
a 812 813 4
a 813 812 4
a 813 843 4
a 843 813 4
a 813 814 8
a 814 813 8
a 814 844 1
a 844 814 1
a 814 815 7
a 815 814 7
a 815 845 8
a 845 815 8
a 815 816 3
a 816 815 3
a 816 846 2
a 846 816 2
a 816 817 2
a 817 816 2
a 817 847 6
a 847 817 6
a 817 818 9
a 818 817 9
a 818 848 10
a 848 818 10
a 818 819 2
a 819 818 2
a 819 849 9
a 849 819 9
a 819 820 2
a 820 819 2
a 820 850 1
a 850 820 1
a 820 821 10
a 821 820 10
a 821 851 2
a 851 821 2
a 821 822 2
a 822 821 2
a 822 852 1
a 852 822 1
a 822 823 7
a 823 822 7
a 823 853 3
a 853 823 3
a 823 824 2
a 824 823 2
a 824 854 1
a 854 824 1
a 824 825 3
a 825 824 3
a 825 855 7
a 855 825 7
a 825 826 1
a 826 825 1
a 826 856 4
a 856 826 4
a 826 827 1
a 827 826 1
a 827 857 1
a 857 827 1
a 827 828 6
a 828 827 6
a 828 829 1
a 829 828 1
a 829 859 5
a 859 829 5
a 829 830 7
a 830 829 7
a 830 831 3
a 831 830 3
a 831 861 10
a 861 831 10
a 831 832 5
a 832 831 5
a 832 833 5
a 833 832 5
a 833 863 3
a 863 833 3
a 833 834 3
a 834 833 3
a 834 864 4
a 864 834 4
a 834 835 5
a 835 834 5
a 835 865 2
a 865 835 2
a 835 836 2
a 836 835 2
a 836 837 10
a 837 836 10
a 837 838 10
a 838 837 10
a 838 839 9
a 839 838 9
a 839 869 3
a 869 839 3
a 839 840 7
a 840 839 7
a 840 870 1
a 870 840 1
a 841 871 1
a 871 841 1
a 841 842 8
a 842 841 8
a 842 872 6
a 872 842 6
a 842 843 3
a 843 842 3
a 843 873 5
a 873 843 5
a 843 844 5
a 844 843 5
a 844 874 1
a 874 844 1
a 844 845 8
a 845 844 8
a 845 875 7
a 875 845 7
a 845 846 6
a 846 845 6
a 846 876 3
a 876 846 3
a 846 847 10
a 847 846 10
a 847 877 6
a 877 847 6
a 847 848 7
a 848 847 7
a 848 878 7
a 878 848 7
a 848 849 10
a 849 848 10
a 849 879 8
a 879 849 8
a 849 850 1
a 850 849 1
a 850 880 5
a 880 850 5
a 850 851 5
a 851 850 5
a 851 852 8
a 852 851 8
a 852 882 4
a 882 852 4
a 852 853 6
a 853 852 6
a 853 883 1
a 883 853 1
a 853 854 3
a 854 853 3
a 854 855 3
a 855 854 3
a 855 885 5
a 885 855 5
a 855 856 3
a 856 855 3
a 856 886 1
a 886 856 1
a 856 857 10
a 857 856 10
a 857 887 8
a 887 857 8
a 859 889 5
a 889 859 5
a 861 891 6
a 891 861 6
a 863 893 5
a 893 863 5
a 863 864 8
a 864 863 8
a 864 894 7
a 894 864 7
a 864 865 6
a 865 864 6
a 865 895 7
a 895 865 7
a 869 899 1
a 899 869 1
a 869 870 10
a 870 869 10
a 870 900 3
a 900 870 3
a 871 872 6
a 872 871 6
a 872 873 2
a 873 872 2
a 873 874 9
a 874 873 9
a 874 875 5
a 875 874 5
a 875 876 3
a 876 875 3
a 876 877 5
a 877 876 5
a 877 878 9
a 878 877 9
a 878 879 6
a 879 878 6
a 879 880 9
a 880 879 9
a 882 883 8
a 883 882 8
a 885 886 9
a 886 885 9
a 886 887 2
a 887 886 2
a 887 888 2
a 888 887 2
a 888 889 1
a 889 888 1
a 889 890 6
a 890 889 6
a 890 891 8
a 891 890 8
a 893 894 1
a 894 893 1
a 894 895 5
a 895 894 5
a 895 896 7
a 896 895 7
a 896 897 9
a 897 896 9
a 897 898 5
a 898 897 5
a 898 899 2
a 899 898 2
a 899 900 6
a 900 899 6
